12
48
953
1225
1099
897
1296
1183
1280
1266
921
1019
1252
935
100	855
271	3
148	90
631	218
609	548
524	806
937	879
309	187
166	177
586	627
89	443
814	69
937	424
461	708
827	760
856	99
382	110
731	47
952	142
374	229
417	658
402	430
482	7
561	159
788	740
475	246
831	619
499	11
370	459
399	395
443	357
809	939
581	957
56	147
902	556
360	840
345	956
240	470
313	451
970	86
491	619
561	237
608	353
681	653
832	757
899	520
859	553
774	121
